c 131_3_checker_5cl.cnf
c
c field = 131
c formula set type = 3_checker_5cl
c
p cnf 5 6
262 
264 
266 
-269 
-258 
263 
265 
267 
-268 
-259 
292 
324 
356 
-389 
-228 
293 
325 
357 
-388 
-229 
176 
204 
232 
-149 
-288 
177 
205 
233 
-148 
-289 
